(set-option :produce-models true)
(set-logic QF_LRA)
(set-info :notes | Strip-packing problem.|)
(declare-fun x0 () Real)
(declare-fun y0 () Real)
(declare-fun x1 () Real)
(declare-fun y1 () Real)
(declare-fun x2 () Real)
(declare-fun y2 () Real)
(declare-fun x3 () Real)
(declare-fun y3 () Real)
(declare-fun x4 () Real)
(declare-fun y4 () Real)
(declare-fun x5 () Real)
(declare-fun y5 () Real)
(declare-fun x6 () Real)
(declare-fun y6 () Real)
(declare-fun x7 () Real)
(declare-fun y7 () Real)
(declare-fun x8 () Real)
(declare-fun y8 () Real)
(declare-fun x9 () Real)
(declare-fun y9 () Real)
(declare-fun x10 () Real)
(declare-fun y10 () Real)
(declare-fun x11 () Real)
(declare-fun y11 () Real)
(declare-fun z () Real)
(declare-fun c () Real)
(assert (and (= c z) (and (>= x0 0) 
(and (>= y0 0) 
(and (>= x1 0) 
(and (>= y1 0) 
(and (>= x2 0) 
(and (>= y2 0) 
(and (>= x3 0) 
(and (>= y3 0) 
(and (>= x4 0) 
(and (>= y4 0) 
(and (>= x5 0) 
(and (>= y5 0) 
(and (>= x6 0) 
(and (>= y6 0) 
(and (>= x7 0) 
(and (>= y7 0) 
(and (>= x8 0) 
(and (>= y8 0) 
(and (>= x9 0) 
(and (>= y9 0) 
(and (>= x10 0) 
(and (>= y10 0) 
(and (>= x11 0) 
(and (>= y11 0) 
(and (>= z 0) 
(and (>= c 0) 
(and (<= (+ x0 0.5149653721) z) 
(and (<= 0.7383785171 y0) 
(and (<= y0 1.73205080757) 
(and (<= x0 (- 2.747421624 0.5149653721)) 
(and (>= x0 0) 
(and (<= (+ x1 0.1948759502) z) 
(and (<= 0.7344789456 y1) 
(and (<= y1 1.73205080757) 
(and (<= x1 (- 2.747421624 0.1948759502)) 
(and (>= x1 0) 
(and (<= (+ x2 0.1557176752) z) 
(and (<= 0.6644179822 y2) 
(and (<= y2 1.73205080757) 
(and (<= x2 (- 2.747421624 0.1557176752)) 
(and (>= x2 0) 
(and (<= (+ x3 0.2701751674) z) 
(and (<= 0.5859935588 y3) 
(and (<= y3 1.73205080757) 
(and (<= x3 (- 2.747421624 0.2701751674)) 
(and (>= x3 0) 
(and (<= (+ x4 0.8070151242) z) 
(and (<= 0.4463848345 y4) 
(and (<= y4 1.73205080757) 
(and (<= x4 (- 2.747421624 0.8070151242)) 
(and (>= x4 0) 
(and (<= (+ x5 0.9995482851) z) 
(and (<= 0.3371814371 y5) 
(and (<= y5 1.73205080757) 
(and (<= x5 (- 2.747421624 0.9995482851)) 
(and (>= x5 0) 
(and (<= (+ x6 0.4616947804) z) 
(and (<= 0.3179482587 y6) 
(and (<= y6 1.73205080757) 
(and (<= x6 (- 2.747421624 0.4616947804)) 
(and (>= x6 0) 
(and (<= (+ x7 0.1966346904) z) 
(and (<= 0.3143101179 y7) 
(and (<= y7 1.73205080757) 
(and (<= x7 (- 2.747421624 0.1966346904)) 
(and (>= x7 0) 
(and (<= (+ x8 0.5297457429) z) 
(and (<= 0.2402693649 y8) 
(and (<= y8 1.73205080757) 
(and (<= x8 (- 2.747421624 0.5297457429)) 
(and (>= x8 0) 
(and (<= (+ x9 0.6268396279) z) 
(and (<= 0.2298601641 y9) 
(and (<= y9 1.73205080757) 
(and (<= x9 (- 2.747421624 0.6268396279)) 
(and (>= x9 0) 
(and (<= (+ x10 0.7273019143) z) 
(and (<= 0.1980845168 y10) 
(and (<= y10 1.73205080757) 
(and (<= x10 (- 2.747421624 0.7273019143)) 
(and (>= x10 0) 
(and (<= (+ x11 0.2066599162) z) 
(and (<= 0.1780459577 y11) 
(and (<= y11 1.73205080757) 
(and (<= x11 (- 2.747421624 0.2066599162)) 
(and (>= x11 0) 
(and (<= c 2.747421624) 
(and (or (<= (+ x0 0.5149653721) x1) (or (<= (+ x1 0.1948759502) x0) (or (>= (- y0 0.7383785171) y1) (or (>= (- y1 0.7344789456) y0))))) 
(and (or (<= (+ x0 0.5149653721) x2) (or (<= (+ x2 0.1557176752) x0) (or (>= (- y0 0.7383785171) y2) (or (>= (- y2 0.6644179822) y0))))) 
(and (or (<= (+ x0 0.5149653721) x3) (or (<= (+ x3 0.2701751674) x0) (or (>= (- y0 0.7383785171) y3) (or (>= (- y3 0.5859935588) y0))))) 
(and (or (<= (+ x0 0.5149653721) x4) (or (<= (+ x4 0.8070151242) x0) (or (>= (- y0 0.7383785171) y4) (or (>= (- y4 0.4463848345) y0))))) 
(and (or (<= (+ x0 0.5149653721) x5) (or (<= (+ x5 0.9995482851) x0) (or (>= (- y0 0.7383785171) y5) (or (>= (- y5 0.3371814371) y0))))) 
(and (or (<= (+ x0 0.5149653721) x6) (or (<= (+ x6 0.4616947804) x0) (or (>= (- y0 0.7383785171) y6) (or (>= (- y6 0.3179482587) y0))))) 
(and (or (<= (+ x0 0.5149653721) x7) (or (<= (+ x7 0.1966346904) x0) (or (>= (- y0 0.7383785171) y7) (or (>= (- y7 0.3143101179) y0))))) 
(and (or (<= (+ x0 0.5149653721) x8) (or (<= (+ x8 0.5297457429) x0) (or (>= (- y0 0.7383785171) y8) (or (>= (- y8 0.2402693649) y0))))) 
(and (or (<= (+ x0 0.5149653721) x9) (or (<= (+ x9 0.6268396279) x0) (or (>= (- y0 0.7383785171) y9) (or (>= (- y9 0.2298601641) y0))))) 
(and (or (<= (+ x0 0.5149653721) x10) (or (<= (+ x10 0.7273019143) x0) (or (>= (- y0 0.7383785171) y10) (or (>= (- y10 0.1980845168) y0))))) 
(and (or (<= (+ x0 0.5149653721) x11) (or (<= (+ x11 0.2066599162) x0) (or (>= (- y0 0.7383785171) y11) (or (>= (- y11 0.1780459577) y0))))) 
(and (or (<= (+ x1 0.1948759502) x2) (or (<= (+ x2 0.1557176752) x1) (or (>= (- y1 0.7344789456) y2) (or (>= (- y2 0.6644179822) y1))))) 
(and (or (<= (+ x1 0.1948759502) x3) (or (<= (+ x3 0.2701751674) x1) (or (>= (- y1 0.7344789456) y3) (or (>= (- y3 0.5859935588) y1))))) 
(and (or (<= (+ x1 0.1948759502) x4) (or (<= (+ x4 0.8070151242) x1) (or (>= (- y1 0.7344789456) y4) (or (>= (- y4 0.4463848345) y1))))) 
(and (or (<= (+ x1 0.1948759502) x5) (or (<= (+ x5 0.9995482851) x1) (or (>= (- y1 0.7344789456) y5) (or (>= (- y5 0.3371814371) y1))))) 
(and (or (<= (+ x1 0.1948759502) x6) (or (<= (+ x6 0.4616947804) x1) (or (>= (- y1 0.7344789456) y6) (or (>= (- y6 0.3179482587) y1))))) 
(and (or (<= (+ x1 0.1948759502) x7) (or (<= (+ x7 0.1966346904) x1) (or (>= (- y1 0.7344789456) y7) (or (>= (- y7 0.3143101179) y1))))) 
(and (or (<= (+ x1 0.1948759502) x8) (or (<= (+ x8 0.5297457429) x1) (or (>= (- y1 0.7344789456) y8) (or (>= (- y8 0.2402693649) y1))))) 
(and (or (<= (+ x1 0.1948759502) x9) (or (<= (+ x9 0.6268396279) x1) (or (>= (- y1 0.7344789456) y9) (or (>= (- y9 0.2298601641) y1))))) 
(and (or (<= (+ x1 0.1948759502) x10) (or (<= (+ x10 0.7273019143) x1) (or (>= (- y1 0.7344789456) y10) (or (>= (- y10 0.1980845168) y1))))) 
(and (or (<= (+ x1 0.1948759502) x11) (or (<= (+ x11 0.2066599162) x1) (or (>= (- y1 0.7344789456) y11) (or (>= (- y11 0.1780459577) y1))))) 
(and (or (<= (+ x2 0.1557176752) x3) (or (<= (+ x3 0.2701751674) x2) (or (>= (- y2 0.6644179822) y3) (or (>= (- y3 0.5859935588) y2))))) 
(and (or (<= (+ x2 0.1557176752) x4) (or (<= (+ x4 0.8070151242) x2) (or (>= (- y2 0.6644179822) y4) (or (>= (- y4 0.4463848345) y2))))) 
(and (or (<= (+ x2 0.1557176752) x5) (or (<= (+ x5 0.9995482851) x2) (or (>= (- y2 0.6644179822) y5) (or (>= (- y5 0.3371814371) y2))))) 
(and (or (<= (+ x2 0.1557176752) x6) (or (<= (+ x6 0.4616947804) x2) (or (>= (- y2 0.6644179822) y6) (or (>= (- y6 0.3179482587) y2))))) 
(and (or (<= (+ x2 0.1557176752) x7) (or (<= (+ x7 0.1966346904) x2) (or (>= (- y2 0.6644179822) y7) (or (>= (- y7 0.3143101179) y2))))) 
(and (or (<= (+ x2 0.1557176752) x8) (or (<= (+ x8 0.5297457429) x2) (or (>= (- y2 0.6644179822) y8) (or (>= (- y8 0.2402693649) y2))))) 
(and (or (<= (+ x2 0.1557176752) x9) (or (<= (+ x9 0.6268396279) x2) (or (>= (- y2 0.6644179822) y9) (or (>= (- y9 0.2298601641) y2))))) 
(and (or (<= (+ x2 0.1557176752) x10) (or (<= (+ x10 0.7273019143) x2) (or (>= (- y2 0.6644179822) y10) (or (>= (- y10 0.1980845168) y2))))) 
(and (or (<= (+ x2 0.1557176752) x11) (or (<= (+ x11 0.2066599162) x2) (or (>= (- y2 0.6644179822) y11) (or (>= (- y11 0.1780459577) y2))))) 
(and (or (<= (+ x3 0.2701751674) x4) (or (<= (+ x4 0.8070151242) x3) (or (>= (- y3 0.5859935588) y4) (or (>= (- y4 0.4463848345) y3))))) 
(and (or (<= (+ x3 0.2701751674) x5) (or (<= (+ x5 0.9995482851) x3) (or (>= (- y3 0.5859935588) y5) (or (>= (- y5 0.3371814371) y3))))) 
(and (or (<= (+ x3 0.2701751674) x6) (or (<= (+ x6 0.4616947804) x3) (or (>= (- y3 0.5859935588) y6) (or (>= (- y6 0.3179482587) y3))))) 
(and (or (<= (+ x3 0.2701751674) x7) (or (<= (+ x7 0.1966346904) x3) (or (>= (- y3 0.5859935588) y7) (or (>= (- y7 0.3143101179) y3))))) 
(and (or (<= (+ x3 0.2701751674) x8) (or (<= (+ x8 0.5297457429) x3) (or (>= (- y3 0.5859935588) y8) (or (>= (- y8 0.2402693649) y3))))) 
(and (or (<= (+ x3 0.2701751674) x9) (or (<= (+ x9 0.6268396279) x3) (or (>= (- y3 0.5859935588) y9) (or (>= (- y9 0.2298601641) y3))))) 
(and (or (<= (+ x3 0.2701751674) x10) (or (<= (+ x10 0.7273019143) x3) (or (>= (- y3 0.5859935588) y10) (or (>= (- y10 0.1980845168) y3))))) 
(and (or (<= (+ x3 0.2701751674) x11) (or (<= (+ x11 0.2066599162) x3) (or (>= (- y3 0.5859935588) y11) (or (>= (- y11 0.1780459577) y3))))) 
(and (or (<= (+ x4 0.8070151242) x5) (or (<= (+ x5 0.9995482851) x4) (or (>= (- y4 0.4463848345) y5) (or (>= (- y5 0.3371814371) y4))))) 
(and (or (<= (+ x4 0.8070151242) x6) (or (<= (+ x6 0.4616947804) x4) (or (>= (- y4 0.4463848345) y6) (or (>= (- y6 0.3179482587) y4))))) 
(and (or (<= (+ x4 0.8070151242) x7) (or (<= (+ x7 0.1966346904) x4) (or (>= (- y4 0.4463848345) y7) (or (>= (- y7 0.3143101179) y4))))) 
(and (or (<= (+ x4 0.8070151242) x8) (or (<= (+ x8 0.5297457429) x4) (or (>= (- y4 0.4463848345) y8) (or (>= (- y8 0.2402693649) y4))))) 
(and (or (<= (+ x4 0.8070151242) x9) (or (<= (+ x9 0.6268396279) x4) (or (>= (- y4 0.4463848345) y9) (or (>= (- y9 0.2298601641) y4))))) 
(and (or (<= (+ x4 0.8070151242) x10) (or (<= (+ x10 0.7273019143) x4) (or (>= (- y4 0.4463848345) y10) (or (>= (- y10 0.1980845168) y4))))) 
(and (or (<= (+ x4 0.8070151242) x11) (or (<= (+ x11 0.2066599162) x4) (or (>= (- y4 0.4463848345) y11) (or (>= (- y11 0.1780459577) y4))))) 
(and (or (<= (+ x5 0.9995482851) x6) (or (<= (+ x6 0.4616947804) x5) (or (>= (- y5 0.3371814371) y6) (or (>= (- y6 0.3179482587) y5))))) 
(and (or (<= (+ x5 0.9995482851) x7) (or (<= (+ x7 0.1966346904) x5) (or (>= (- y5 0.3371814371) y7) (or (>= (- y7 0.3143101179) y5))))) 
(and (or (<= (+ x5 0.9995482851) x8) (or (<= (+ x8 0.5297457429) x5) (or (>= (- y5 0.3371814371) y8) (or (>= (- y8 0.2402693649) y5))))) 
(and (or (<= (+ x5 0.9995482851) x9) (or (<= (+ x9 0.6268396279) x5) (or (>= (- y5 0.3371814371) y9) (or (>= (- y9 0.2298601641) y5))))) 
(and (or (<= (+ x5 0.9995482851) x10) (or (<= (+ x10 0.7273019143) x5) (or (>= (- y5 0.3371814371) y10) (or (>= (- y10 0.1980845168) y5))))) 
(and (or (<= (+ x5 0.9995482851) x11) (or (<= (+ x11 0.2066599162) x5) (or (>= (- y5 0.3371814371) y11) (or (>= (- y11 0.1780459577) y5))))) 
(and (or (<= (+ x6 0.4616947804) x7) (or (<= (+ x7 0.1966346904) x6) (or (>= (- y6 0.3179482587) y7) (or (>= (- y7 0.3143101179) y6))))) 
(and (or (<= (+ x6 0.4616947804) x8) (or (<= (+ x8 0.5297457429) x6) (or (>= (- y6 0.3179482587) y8) (or (>= (- y8 0.2402693649) y6))))) 
(and (or (<= (+ x6 0.4616947804) x9) (or (<= (+ x9 0.6268396279) x6) (or (>= (- y6 0.3179482587) y9) (or (>= (- y9 0.2298601641) y6))))) 
(and (or (<= (+ x6 0.4616947804) x10) (or (<= (+ x10 0.7273019143) x6) (or (>= (- y6 0.3179482587) y10) (or (>= (- y10 0.1980845168) y6))))) 
(and (or (<= (+ x6 0.4616947804) x11) (or (<= (+ x11 0.2066599162) x6) (or (>= (- y6 0.3179482587) y11) (or (>= (- y11 0.1780459577) y6))))) 
(and (or (<= (+ x7 0.1966346904) x8) (or (<= (+ x8 0.5297457429) x7) (or (>= (- y7 0.3143101179) y8) (or (>= (- y8 0.2402693649) y7))))) 
(and (or (<= (+ x7 0.1966346904) x9) (or (<= (+ x9 0.6268396279) x7) (or (>= (- y7 0.3143101179) y9) (or (>= (- y9 0.2298601641) y7))))) 
(and (or (<= (+ x7 0.1966346904) x10) (or (<= (+ x10 0.7273019143) x7) (or (>= (- y7 0.3143101179) y10) (or (>= (- y10 0.1980845168) y7))))) 
(and (or (<= (+ x7 0.1966346904) x11) (or (<= (+ x11 0.2066599162) x7) (or (>= (- y7 0.3143101179) y11) (or (>= (- y11 0.1780459577) y7))))) 
(and (or (<= (+ x8 0.5297457429) x9) (or (<= (+ x9 0.6268396279) x8) (or (>= (- y8 0.2402693649) y9) (or (>= (- y9 0.2298601641) y8))))) 
(and (or (<= (+ x8 0.5297457429) x10) (or (<= (+ x10 0.7273019143) x8) (or (>= (- y8 0.2402693649) y10) (or (>= (- y10 0.1980845168) y8))))) 
(and (or (<= (+ x8 0.5297457429) x11) (or (<= (+ x11 0.2066599162) x8) (or (>= (- y8 0.2402693649) y11) (or (>= (- y11 0.1780459577) y8))))) 
(and (or (<= (+ x9 0.6268396279) x10) (or (<= (+ x10 0.7273019143) x9) (or (>= (- y9 0.2298601641) y10) (or (>= (- y10 0.1980845168) y9))))) 
(and (or (<= (+ x9 0.6268396279) x11) (or (<= (+ x11 0.2066599162) x9) (or (>= (- y9 0.2298601641) y11) (or (>= (- y11 0.1780459577) y9))))) 
(and (or (<= (+ x10 0.7273019143) x11) (or (<= (+ x11 0.2066599162) x10) (or (>= (- y10 0.1980845168) y11) (or (>= (- y11 0.1780459577) y10))))) )))))))))))))))))))))))))))))))))))))))))))))))))))))))))))))))))))))))))))))))))))))))))))))))))))))))))))))))))))))))))))))))))))))))))))))))))))))))))))
(minimize c)
(check-sat)
(get-objectives)
(exit)
